1868
2302
2533
2635
2704
2757
2784
2815
2834
2855
2874
2879
2887
2894
2897
2902
2910
2921
2932
2949
2966
2971
2971
2971
2971
2971
2971
2971
2971
2971
2971
2971
2971
2971
2971
2971
2971
2971
2971
2971
2971
2971
2971
2971
2971
2971
2971
2971
2971
2971
2971
2971
2971
2971
2971
2971
2971
2971
2971
2971
2971
2971
2971
2971
2971
2971
2971
2971
2971
2971
2971
2971
2971
2971
2971
2971
2971
2971
2971
2971
2971
2971
2971
2971
2971
2971
2971
2971
2971
2971
2971
2971
2971
2971
2971
2971
2971
2971
2971
